atom_style         meso-molecular
dimension          3
newton             on
units              micro
              
read_data          calendaring.data

variable           h        	 equal 2.0
variable           h_act    	 equal 3.0
variable 		   h_mix	     equal (${h}+${h_act})/2.0
variable           c     	     equal 100.0             # soundspeed for Tait's EOS
variable           dt            equal 0.00001
variable		   visc_CBD      equal 6000			 # viscosity in g/m*s (avg visc should be 2.3578 kg/m*s)
variable 		   visc_active   equal 6000
variable 		   visc_solvent  equal 1.6

variable		   visc_mix1     equal (${visc_CBD}+${visc_active})/2.0
variable 		   visc_mix2     equal (${visc_active}+${visc_solvent})/2.0
variable 		   visc_mix3     equal (${visc_CBD}+${visc_solvent})/2.0

group              cbd type 1 
group			   active type 2
group              slurry type 1 2 
group              bc type 3
group              wall type 4


pair_style         hybrid/overlay sph/rhosum 1 sph/taitwater/morris
pair_coeff         * * sph/taitwater/morris 0.93 ${c} ${visc_CBD} ${h}
#pair_coeff         1 1 sph/taitwater/morris 0.93 ${c} ${visc_CBD} ${h}
pair_coeff         2 2 sph/taitwater/morris 0.93 ${c} ${visc_active} ${h}
pair_coeff         3 3 sph/taitwater/morris 0.93 ${c} ${visc_solvent} ${h}

pair_coeff         1 2 sph/taitwater/morris 0.93 ${c} ${visc_mix1} ${h_mix}
pair_coeff         2 3 sph/taitwater/morris 0.93 ${c} ${visc_mix2} ${h_mix}
pair_coeff         1 3 sph/taitwater/morris 0.93 ${c} ${visc_mix3} ${h_mix}

pair_coeff         * * sph/rhosum ${h}
#pair_coeff         2 * sph/rhosum ${h_act}
#pair_coeff         2 2 sph/rhosum ${h_act}
print				I

timestep    ${dt}

# time-integrate position, velocities, internal energy and density of cbd particles
fix                integrate_slurry_fix slurry meso
# time-integrate only internal energy and density of boundary particles
fix                integrate_bc_fix bc meso/stationary

dump               dump_id all custom 10000 calendaring.lammpstrj id type xs ys zs
dump_modify        dump_id first yes
dump_modify 	   dump_id sort 3

#compute thermo_temp slurry temp
#thermo_modify temp slurry
uncompute thermo_temp
compute thermo_temp slurry temp
thermo             1000
thermo_style       custom step time temp press density lx ly lz
thermo_modify      norm no

neigh_modify       every 5 delay 0 check no
variable           skin equal 0.3*${h}
neighbor           ${skin} bin # set Verlet list skin distance


#fix make_rigid active rigid/nvt molecule temp 30000 3000 30

#fix make_rigid1 bc rigid/nvt molecule temp 30000 3000 30


#variable wiggle_s equal swiggle(0,2000,10)

variable wiggle_c equal cwiggle(0,-2000,10)



variable wall_speed equal -0.04
#variable surface_speed equal abs(${piston_speed}*3)



# Expansion step


# Run with piston stopped
#run ${run_length}
#run ${run_length}

run 1000
#unfix cool

# Start moving piston wall and hopper
dump_modify        dump_id every 25000
#fix push_piston piston_wall move linear 0.0 0.0 ${piston_speed}
fix push_wall wall move linear ${surface_speed} 0.0 ${piston_speed}
variable z_max equal bound(piston_wall,zmax)
variable z_min equal bound(bottom_wall,zmin)
variable run_length equal abs(floor((${z_max}-${z_min}-3)/(${piston_speed}*${dt})))

write_data finished_coat.data


