atom_style         meso-molecular
dimension          3
newton             on
units              micro
#boundary 		   f f f
read_data          fcc+wall.data

variable		   hsolvent        equal 3.16
variable		   hwall    equal 2
variable		   have    equal (${hsolvent}+${hwall})/2 
variable           c     equal 100.0             # soundspeed for Tait's EOS
variable           dt    equal 0.0001			 # size of timestep, microseconds
variable		   viscsolvent  equal 1.65			 # viscosity in picogram / micrometer microsecond (equivilant to centipoise )
variable		   viscwall  equal 1.65	

variable		   viscave  equal (${viscsolvent}+${viscwall})/2 

variable		   denssolvent  equal 1.028
variable		   denswall  equal 8.94	
variable		   denseave  equal (${denssolvent}+${denswall})/2 

group              cbd type 1 
group			   solvent type 2
group  			   active type 3
group			   wall type 4
group			   slurry type 1 2 3 
group 			   bc type 4
#group			   topwall type 5

pair_style         hybrid/overlay sph/rhosum 1 sph/taitwater/morris
#pair_style         hybrid sph/taitwater/morris

pair_coeff         * * sph/taitwater/morris ${denseave} ${c} ${viscave} ${have}
#pair_coeff         2 * sph/taitwater/morris 8.94 ${c} ${visc} ${h}
#pair_coeff         4 * sph/taitwater/morris 1.028 ${c} ${wallvisc} ${hwall}

#pair_coeff         3 3 sph/taitwater/morris 4.79 ${c} ${visc} 2.4
#pair_coeff		   4 4 sph/taitwater/morris 2.0 ${c} ${visc} 2.4

#pair_coeff         1 2 sph/taitwater/morris 0.979 ${c} ${visc} 2.4
#pair_coeff		   1 3 sph/taitwater/morris 2.86 ${c} ${visc} 2.4
#pair_coeff		   1 4 sph/taitwater/morris 1.465 ${c} ${visc} 2
#pair_coeff         2 3 sph/taitwater/morris 2.670 ${c} ${visc} 2.4
#pair_coeff         2 4 sph/taitwater/morris 1.514 ${c} ${visc} 2.4
#pair_coeff		   3 4 sph/taitwater/morris 3.395 ${c} ${visc} 2.4

pair_coeff         * * sph/rhosum ${have}
#pair_coeff         2 * sph/rhosum ${h}
#pair_coeff         4 * sph/rhosum ${hwall}

#pair_coeff         3 3 sph/rhosum 4.8
#pair_coeff		   4 4 sph/rhosum 1.2

#pair_coeff         1 2 sph/rhosum 1.2
#pair_coeff         1 3 sph/rhosum 3
#pair_coeff         1 4 sph/rhosum 1.2
#pair_coeff         2 3 sph/rhosum 3
#pair_coeff         2 4 sph/rhosum 1.2
#pair_coeff		   3 4 sph/rhosum 3


timestep    ${dt}

# time-integrate position, velocities, internal energy and density of cbd particles
fix                integrate_slurry_fix slurry meso
# time-integrate only internal energy and density of boundary particles
fix                integrate_bc_fix bc meso/stationary

dump               dump_id all custom 10000 solvent+wall.lammpstrj id type mol xs ys zs
dump_modify        dump_id first yes
dump_modify 	   dump_id sort 3

#compute thermo_temp slurry temp
#thermo_modify temp slurry
uncompute thermo_temp
compute thermo_temp slurry temp
thermo             1000
thermo_style       custom step time dt temp press density lx ly lz
thermo_modify      lost ignore

neigh_modify       every 5 delay 0 check no
variable           skin equal 0.3*${have}
neighbor           ${skin} bin # set Verlet list skin distance

variable g equal 9.807/1000000
fix add_gravity slurry gravity ${g} vector 0 0 -1

run 100000000


