atom_style         meso-molecular
dimension          3
newton             on
units              micro
read_data          fcc_packed.data



variable           h         equal 4.5
variable           c     equal 100.0             # soundspeed for Tait's EOS
variable           dt    equal 0.0001
variable		   visc  equal 0.00165 #we want to verifty that our code returns the same value for viscosity as the one that we passed in
variable	srate equal 2.7
variable			T equal 300.0
variable V equal vol

variable    p equal 400     # correlation length
variable    s equal 5       # sample interval
variable    d equal $p*$s   # dump interval 


variable kB equal 1.3806504e-23 # [J/K/ Boltzmann
variable atm2Pa equal 101325.0
variable A2m equal 1.0e-10
variable fs2s equal 1.0e-15
variable convert equal ${atm2Pa}*${atm2Pa}*${fs2s}*${A2m}*${A2m}*${A2m}






group			   solvent type 1

pair_style         hybrid/overlay sph/rhosum 1 sph/taitwater/morris

pair_coeff         * * sph/taitwater/morris 1.03 ${c} ${visc} ${h}



pair_coeff         * * sph/rhosum ${h}



timestep    ${dt}
thermo $d
### Dump the position

dump               dump_id all custom 10000 visc.lammpstrj xs ys zs # we don't need type and id they are all the same
dump_modify        dump_id first yes
# equilibration and thermalization
velocity all create $T 102486 mom yes rot yes dist gaussian
fix NVT all nvt temp $T $T 10 drag 0.2
run 8000
# viscosity calculation, switch to NVE if desired
#unfix NVT
#fix NVE all nve
reset_timestep 0
variable pxy equal pxy
variable pxz equal pxz
variable pyz equal pyz
fix SS all ave/correlate $s $p $d &
v_pxy v_pxz v_pyz type auto file S0St.dat ave running
#variable scale equal ${convert}/(${kB}*$T)*$V*$s*${dt}
variable v11 equal trap(f_SS[3])
variable v22 equal trap(f_SS[4])
variable v33 equal trap(f_SS[5])
thermo_style custom step temp press v_pxy v_pxz v_pyz v_v11 v_v22 v_v33
run 100000
variable v equal (v_v11+v_v22+v_v33)/3.0
#variable ndens equal count(all)/vol
print "average viscosity: $v [Pa.s] "