atom_style         meso-molecular
dimension          3
newton             on
units              micro
read_data          fcc_packed.data

#the shape of the box changed
change_box		   all triclinic 

variable           h         equal 4
variable           c     equal 100.0             # soundspeed for Tait's EOS
variable           dt    equal 0.0001
variable		   visc  equal 0.00165 #we want to verifty that our code returns the same value for viscosity as the one that we passed in
variable	srate equal 2.7
variable			t equal 300.0

variable    p equal 400     # correlation length
variable    s equal 5       # sample interval
variable    d equal $p*$s   # dump interval 


group			   solvent type 1

pair_style         hybrid/overlay sph/rhosum 1 sph/taitwater/morris

pair_coeff         * * sph/taitwater/morris 1.03 ${c} ${visc} ${h}



pair_coeff         * * sph/rhosum ${h}



timestep    ${dt}

### Dump the position

dump               dump_id all custom 10000 visc.lammpstrj xs ys zs # we don't need type and id they are all the same
dump_modify        dump_id first yes
velocity        all create $t 97287

# equilibration run

fix             1 all nve
fix	        2 all langevin $t $t 0.1 498094


thermo          $d
run	        10000

velocity	all scale $t

unfix		2

# Green-Kubo viscosity calculation

reset_timestep  0

# Define distinct components of symmetric traceless stress tensor
 
variable         pxy equal pxy
variable         pxx equal pxx-press

fix              SS all ave/correlate $s $p $d &
                 v_pxy v_pxx type auto file profile.gk ave running

# Diagonal components of SS are larger by factor 2-2/d,
# which is 4/3 for d=3, but 1 for d=2.
# See Daivis and Evans, J.Chem.Phys, 100, 541-547 (1994)

variable         scale equal 1.0/$t*vol*$s*dt
variable         diagfac equal 2-2/2
variable         vxy equal trap(f_SS[3])*${scale}
variable         vxx equal trap(f_SS[4])*${scale}/${diagfac}

thermo_style     custom step temp press pxy v_vxy v_vxx

run              500000

variable         etaxy equal v_vxy
variable         etaxx equal v_vxx
variable         eta equal 0.5*(${etaxy}+${etaxx})
print            "running average viscosity: ${eta}"
