atom_style         meso-molecular
dimension          3
newton             on
units              micro

read_data          sliced_full.data

group              cbd type 1 
group			   active type 2
group              slurry type 1 2 
group              bc type 3
group              wall type 4


region             topwall 0 0 100 0 0 1
# creating wall

fix creating_wall wall/region topwall lj93 1.0 1.0 2.5   

#fix ID group-ID wall/region region-ID style epsilon sigma cutoff


dump               dump_id all custom 10000 wall.lammpstrj id type xs ys zs
dump_modify        dump_id first yes
dump_modify 	   dump_id sort 3


