atom_style         meso-molecular
dimension          3
newton             on
units              micro
read_data          slvnt_clmn.data

variable		   h        equal 3.0

variable           hcbd     equal 2.49
variable           hact     equal 3.5
variable           hsol     equal 5
variable		   hwall    equal 2
variable           hcbdsol  equal 2

variable		   h1     equal (${h}/2)
variable           hcbd1  equal (${hcbd}/2)
variable 		   hact1  equal (${hact}/2)
variable           hsol1  equal (${hsol}/2)
variable		   hwall1 equal (${hwall}/2)


variable           hcbdact  equal ((${hcbd}+${hact})/2)
variable 		   hcbdwall	equal ((${hcbd}+${hwall})/2)
variable           hsolact  equal ((${hsol}+${hact})/2)
variable		   hsolwall equal ((${hsol}+${hwall})/2)
variable		   hactwall equal ((${hact}+${hwall})/2)

variable           hcbdact1  	equal ((${hcbd}+${hact})/4)
variable 		   hcbdwall1	equal ((${hcbd}+${hwall})/4)
variable 		   hcbdsol1 	equal ((${hcbd}+${hsol})/4)
variable           hsolact1 	equal ((${hsol}+${hact})/4)
variable		   hsolwall1 	equal ((${hsol}+${hwall})/4)
variable		   hactwall1 	equal ((${hact}+${hwall})/4)

variable           c     equal 100.0             # soundspeed for Tait's EOS
variable           dt    equal 0.0001			 # size of timestep, microseconds
variable		   visc  equal 2357.8			 # viscosity in g/m*s (avg visc should be 2.3578 kg/m*s)


group              cbd type 1 
group  			   active type 2
group			   solvent type 3
group  			   cbd_solvent type 1 3
group			   wall type 4
group			   slurry type 1 2 3 
group 			   bc type 5

pair_style         hybrid/overlay sph/rhosum 1 sph/taitwater/morris

pair_coeff         * * sph/taitwater/morris 2.0 ${c} ${visc} ${h}

pair_coeff         1 1 sph/taitwater/morris 0.93 ${c} ${visc} ${hcbd}
pair_coeff         2 2 sph/taitwater/morris 4.79 ${c} ${visc} ${hact}
pair_coeff         3 3 sph/taitwater/morris 1.028 ${c} ${visc} ${hsol}

pair_coeff		   4 4 sph/taitwater/morris 5.0 ${c} ${visc} ${hwall}

pair_coeff		   1 2 sph/taitwater/morris 2.86 ${c} ${visc} ${hcbdact}
pair_coeff         1 3 sph/taitwater/morris 0.979 ${c} ${visc} ${hcbdsol}
pair_coeff		   1 4 sph/taitwater/morris 2.965 ${c} ${visc} ${hcbdwall}
pair_coeff         2 3 sph/taitwater/morris 2.670 ${c} ${visc} ${hsolact}
pair_coeff		   2 4 sph/taitwater/morris 4.9 ${c} ${visc} ${hactwall}
pair_coeff         3 4 sph/taitwater/morris 3.014 ${c} ${visc} ${hsolwall}


pair_coeff         * * sph/rhosum ${h1}

pair_coeff         1 1 sph/rhosum ${hcbd1}
pair_coeff         2 2 sph/rhosum ${hact1}
pair_coeff         3 3 sph/rhosum ${hsol1}
pair_coeff		   4 4 sph/rhosum ${hwall1}

pair_coeff         1 2 sph/rhosum ${hcbdact1}
pair_coeff         1 3 sph/rhosum ${hcbdsol1}
pair_coeff         1 4 sph/rhosum ${hcbdwall1}
pair_coeff         2 3 sph/rhosum ${hsolact1}
pair_coeff		   2 4 sph/rhosum ${hactwall1}
pair_coeff         3 4 sph/rhosum ${hsolwall1}




timestep    ${dt}
fix make_rigid active rigid molecule 
# time-integrate position, velocities, internal energy and density of cbd particles
fix                integrate_slurry_fix slurry meso
# time-integrate only internal energy and density of boundary particles
fix                integrate_bc_fix bc meso/stationary

dump               dump_id all custom 10000 19h-5000.lammpstrj id type mol xs ys zs
dump_modify        dump_id first yes
dump_modify 	   dump_id sort 3

#compute thermo_temp slurry temp
#thermo_modify temp slurry
uncompute thermo_temp
compute thermo_temp slurry temp
thermo             1000
thermo_style       custom step time temp press density lx ly lz
thermo_modify      norm no

neigh_modify       every 5 delay 0 check no
variable           skin equal 0.3*${h}
neighbor           ${skin} bin # set Verlet list skin distance





#fix move_wall topwall move linear 0 0 -1
#fix make_rigid active rigid molecule

variable g equal 9.807/1000000

fix add_gravity all gravity ${g} vector 0 0 -1

#fix cool slurry langevin 3000 3000 10 234

run 3000000
#unfix move_wall
#fix move_wall topwall move linear 0 0 1

run 3000000
#unfix move_wall

write_data write.data1
run 4000000
write_data write.data2