atom_style         meso-molecular
dimension          3
newton             on
units              micro
read_data          slurry.data


variable           c     equal 10.0             # soundspeed for Tait's EOS
variable           dt    equal 0.0001			 # size of timestep, microseconds
#Svariable		   visc  equal 1.65			 # viscosity in picogram / micrometer microsecond (equivilant to centipoise )



variable		   T        equal 300

variable		   h        equal 3.16

variable           hcbd     equal 3
variable           hact     equal 2.5
variable           hsol     equal 4
variable		   hwall    equal 2

variable		   hwallinteract    equal (${h}+${hwall})/2 



variable           hcbdact  equal ((${hcbd}+${hact})/2)
variable 		   hcbdwall	equal ((${hcbd}+${hwall})/2)
variable           hsolact  equal ((${hsol}+${hact})/2)
variable		   hsolwall equal ((${hsol}+${hwall})/2)
variable		   hactwall equal ((${hact}+${hwall})/2)
variable           hcbdsol  equal ((${hsol}+${hcbd})/2)





group              cbd type 1 
group  			   active type 2
group			   solvent type 3
group  			   cbd_solvent type 1 3
group			   wall type 4
group			   slurry type 1 2 3 
group 			   bc type 5

pair_style         hybrid/overlay sph/rhosum 1 sph/taitwater/morris

pair_coeff         * * sph/taitwater/morris 2.24 ${c} 0 ${h}

pair_coeff         1 1 sph/taitwater/morris 0.93 ${c} 0 ${hcbd}
pair_coeff         2 2 sph/taitwater/morris 2 ${c} 0 ${hact}
pair_coeff         3 3 sph/taitwater/morris 1.028 ${c} 0 ${hsol}

#pair_coeff		   4 4 sph/taitwater/morris 1 ${c} 0 ${hwall}

pair_coeff		   1 2 sph/taitwater/morris 1.5 ${c} 0 ${hcbdact}
pair_coeff         1 3 sph/taitwater/morris 0.979 ${c} 0 ${hcbdsol}
#pair_coeff		   1 4 sph/taitwater/morris 1 ${c} 0 ${hcbdwall}
pair_coeff         2 3 sph/taitwater/morris 2.909 ${c} 0 ${hsolact}
#pair_coeff		   2 4 sph/taitwater/morris 1 ${c} 0 ${hactwall}
#pair_coeff         3 4 sph/taitwater/morris 1 ${c} 0 ${hsolwall}


pair_coeff         * * sph/rhosum ${h}

pair_coeff         1 1 sph/rhosum ${hcbd}
pair_coeff         2 2 sph/rhosum ${hact}
pair_coeff         3 3 sph/rhosum ${hsol}
#pair_coeff		   4 4 sph/rhosum ${hwall}

pair_coeff         1 2 sph/rhosum ${hcbdact}
pair_coeff         1 3 sph/rhosum ${hcbdsol}
#pair_coeff         1 4 sph/rhosum ${hcbdwall}
pair_coeff         2 3 sph/rhosum ${hsolact}
#pair_coeff		   2 4 sph/rhosum ${hactwall}
#pair_coeff         3 4 sph/rhosum ${hsolwall}

timestep    ${dt}

### Dump the position

dump               dump_id all custom 10000 new1.lammpstrj id type mol xs ys zs 
dump_modify        dump_id first yes
dump_modify 	   dump_id sort 3


### Thermo

thermo             1000
thermo_style       custom step time dt temp press density lx ly lz
thermo_modify      norm no


neigh_modify       every 5 delay 0 check no
variable           skin equal 0.3*${h}
neighbor           ${skin} bin # set Verlet list skin distance

#fix make_rigid active rigid molecule

# it's better to let the system equlibrate so that it's done with all the wierd behaviors

# run few times- thermostat 
fix npt_method all npt temp $T $T 100.0 iso 100.0 100.0 1000.0 tloop 20


timestep	${dt}
thermo        1000

run 50000

unfix npt_method  # we are going to use another fix command

##########################

variable	xyrate equal 0.001     # 1000 s-1 
variable	srate equal ${xyrate}*lx

fix		1 all nvt/sllod temp $T $T 100
fix		2 all deform 1 xy erate ${xyrate} remap v


variable	visc equal -pxy/(v_srate/ly)
variable     pressure equal press
fix		vave all ave/time 10 100 1000 v_visc ave running start 1000
fix		pave all ave/time 10 100 1000 v_pressure ave running start 1000

thermo  		1000
thermo_style	custom step temp  press pxy  v_visc f_vave f_pave v_xyrate pe ke etotal
#thermo_modify	temp tilt

run 10000000