atom_style         meso-molecular
dimension          3
newton             on
units              micro
read_data          hopper.data

variable		   h        equal 2.0
variable           c     equal 100.0             # soundspeed for Tait's EOS
variable           dt    equal 0.0001			 # size of timestep, microseconds
variable		   visc  equal 2357.8			 # viscosity in g/m*s (avg visc should be 2.3578 kg/m*s)


group              cbd type 1 
group			   solvent type 2
group  			   active type 3
group			   wall type 4
group			   slurry type 1 2 3 
group 			   bc type 4
group			   guards type 7

pair_style         hybrid/overlay sph/rhosum 1 sph/taitwater/morris

pair_coeff         * * sph/taitwater/morris 2.0 ${c} ${visc} ${h}

pair_coeff         1 1 sph/taitwater/morris 0.93 ${c} ${visc} 2
pair_coeff         2 2 sph/taitwater/morris 1.028 ${c} ${visc} 2
pair_coeff         3 3 sph/taitwater/morris 4.79 ${c} ${visc} 8
pair_coeff		   4 4 sph/taitwater/morris 5.0 ${c} ${visc} 2

pair_coeff         1 2 sph/taitwater/morris 0.979 ${c} ${visc} 2
pair_coeff		   1 3 sph/taitwater/morris 2.86 ${c} ${visc} 5
pair_coeff		   1 4 sph/taitwater/morris 2.965 ${c} ${visc} 2
pair_coeff         2 3 sph/taitwater/morris 2.670 ${c} ${visc} 5
pair_coeff         2 4 sph/taitwater/morris 3.014 ${c} ${visc} 2
pair_coeff		   3 4 sph/taitwater/morris 4.9 ${c} ${visc} 5

pair_coeff         * * sph/rhosum ${h}

pair_coeff         1 1 sph/rhosum 1
pair_coeff         2 2 sph/rhosum 1
pair_coeff         3 3 sph/rhosum 4
pair_coeff		   4 4 sph/rhosum 1

pair_coeff         1 2 sph/rhosum 1
pair_coeff         1 3 sph/rhosum 2.5
pair_coeff         1 4 sph/rhosum 1
pair_coeff         2 3 sph/rhosum 2.5
pair_coeff         2 4 sph/rhosum 1
pair_coeff		   3 4 sph/rhosum 2.5


timestep    ${dt}

# time-integrate position, velocities, internal energy and density of cbd particles
fix                integrate_slurry_fix slurry meso
# time-integrate only internal energy and density of boundary particles
fix                integrate_bc_fix bc meso/stationary

dump               dump_id all custom 10000 mixing_hopper_guardsI4.lammpstrj id type mol xs ys zs
dump_modify        dump_id first yes
dump_modify 	   dump_id sort 3

#compute thermo_temp slurry temp
#thermo_modify temp slurry
uncompute thermo_temp
compute thermo_temp slurry temp
thermo             1000
thermo_style       custom step time temp press density lx ly lz
thermo_modify      norm no

neigh_modify       every 5 delay 0 check no
variable           skin equal 0.3*${h}
neighbor           ${skin} bin # set Verlet list skin distance

variable g equal 9.807/100
group bottom_wall type 6
group piston_wall type 5

fix add_gravity all gravity ${g} vector 0 0 -1
fix move_wall bottom_wall move linear 5 0 0


run 270000

unfix move_wall
fix cool slurry langevin 3000 3000 10 234



run 1000000

# Move piston wall to starting position
variable dx equal bound(bc,xmin)-bound(piston_wall,xmin)
displace_atoms piston_wall move ${dx} 0 0
delete_atoms group guards
unfix add_gravity

variable g2 equal 9.807/1000000

fix add_gravity2 all gravity ${g2} vector 0 0 -1


run 1000000
write_data mixed_hopper_guardsI4.data
