atom_style         meso-molecular
dimension          3
newton             on
units              micro
print              hi
read_data          coating.data
print              there
variable           trial equal 1

variable		   h        equal 2.0

variable           hcbd     equal 2
variable           hact     equal 8.0
variable           hsol     equal 2
variable		   hwall    equal 2
variable           hcbdsol  equal 2

variable		   h1     equal (${h}/2)
variable           hcbd1  equal (${hcbd}/2)
variable 		   hact1  equal (${hact}/2)
variable           hsol1  equal (${hsol}/2)
variable		   hwall1 equal (${hwall}/2)


variable           hcbdact  equal ((${hcbd}+${hact})/2)
variable 		   hcbdwall	equal ((${hcbd}+${hwall})/2)
variable           hsolact  equal ((${hsol}+${hact})/2)
variable		   hsolwall equal ((${hsol}+${hwall})/2)
variable		   hactwall equal ((${hact}+${hwall})/2)

variable           hcbdact1  	equal ((${hcbd}+${hact})/4)
variable 		   hcbdwall1	equal ((${hcbd}+${hwall})/4)
variable 		   hcbdsol1 	equal ((${hcbd}+${hsol})/4)
variable           hsolact1 	equal ((${hsol}+${hact})/4)
variable		   hsolwall1 	equal ((${hsol}+${hwall})/4)
variable		   hactwall1 	equal ((${hact}+${hwall})/4)

variable           c     equal 100.0             # soundspeed for Tait's EOS
variable           dt    equal 0.0001			 # size of timestep, microseconds
variable		   visc  equal 2357.8			 # viscosity in g/m*s (avg visc should be 2.3578 kg/m*s)


group              cbd type 1 
group			   solvent type 3
group  			   active type 2
group  			   cbd_solvent type 1 3
group			   wall type 4
group			   slurry type 1 2 3 
group 			   bc type 5

pair_style         hybrid/overlay sph/rhosum 1 sph/taitwater/morris

pair_coeff         * * sph/taitwater/morris 2.0 ${c} ${visc} ${h}

pair_coeff         1 1 sph/taitwater/morris 0.93 ${c} ${visc} ${hcbd}
pair_coeff         2 2 sph/taitwater/morris 4.79 ${c} ${visc} ${hact}
pair_coeff         3 3 sph/taitwater/morris 1.028 ${c} ${visc} ${hsol}

pair_coeff		   4 4 sph/taitwater/morris 5.0 ${c} ${visc} ${hwall}

pair_coeff		   1 2 sph/taitwater/morris 2.86 ${c} ${visc} ${hcbdact}
pair_coeff         1 3 sph/taitwater/morris 0.979 ${c} ${visc} ${hcbdsol}
pair_coeff		   1 4 sph/taitwater/morris 2.965 ${c} ${visc} ${hcbdwall}
pair_coeff         2 3 sph/taitwater/morris 2.670 ${c} ${visc} ${hsolact}
pair_coeff		   2 4 sph/taitwater/morris 4.9 ${c} ${visc} ${hactwall}
pair_coeff         3 4 sph/taitwater/morris 3.014 ${c} ${visc} ${hsolwall}


pair_coeff         * * sph/rhosum ${h1}

pair_coeff         1 1 sph/rhosum ${hcbd1}
pair_coeff         2 2 sph/rhosum ${hact1}
pair_coeff         3 3 sph/rhosum ${hsol1}
pair_coeff		   4 4 sph/rhosum ${hwall1}

pair_coeff         1 2 sph/rhosum ${hcbdact1}
pair_coeff         1 3 sph/rhosum ${hcbdsol1}
pair_coeff         1 4 sph/rhosum ${hcbdwall1}
pair_coeff         2 3 sph/rhosum ${hsolact1}
pair_coeff		   2 4 sph/rhosum ${hactwall1}
pair_coeff         3 4 sph/rhosum ${hsolwall1}




timestep    ${dt}

# time-integrate position, velocities, internal energy and density of cbd particles
fix                integrate_slurry_fix slurry meso
# time-integrate only internal energy and density of boundary particles
fix                integrate_bc_fix bc meso/stationary

dump               dump_id all custom 10000 coating.lammpstrj id type mol xs ys zs
dump_modify        dump_id first yes
dump_modify 	   dump_id sort 3

#compute thermo_temp slurry temp
#thermo_modify temp slurry
uncompute thermo_temp
compute thermo_temp slurry temp
thermo             1000
thermo_style       custom step time temp press density lx ly lz
thermo_modify      norm no

neigh_modify       every 5 delay 0 check no
variable           skin equal 0.3*${h}
neighbor           ${skin} bin # set Verlet list skin distance

#fix make_rigid active rigid/nvt molecule temp 30000 30000 30
#fix cbd_sovent_temp cbd_solvent nvt temp 30000 30000 30
fix make_rigid active rigid molecule 
variable g equal 9.8/1000000
fix add_gravity slurry gravity ${g} vector 0 0 -1  # Acceleration is micrometers/(microseconds)^2

variable wiggle_s equal swiggle(0,2000,10)
variable wiggle_c equal cwiggle(0,-2000,10)

#fix strong_gravity slurry addforce 0.0 0.0 -0.05

group stir_bar molecule 2
#fix stir_the_bar stir_bar addforce v_wiggle_s 0.0 v_wiggle_c
#fix stir cbd addforce v_wiggle_s 0.0 v_wiggle_c
#fix stir slurry langevin 1000 1000 10 234 
#fix stir slurry nvt temp 10000000000 10000000000 10
group moving_surface molecule 1
#fix move_surface moving_surface move linear 0.09 0 0 # Speed is in m/s (coating speeds vary from 1/60 m/s to 10/60 m/s)

group bottom_wall type 6
group piston_wall type 5

variable piston_speed equal -0.06
variable surface_speed equal abs(${piston_speed}*3)

# Stir
#run 300000


#unfix stir
#unfix stir_the_bar

# Cool
fix cool slurry langevin 300 300 10 234
#run 10000
#unfix cool
#fix 1 slurry nve
# Apply extra gravity
#fix extra_gravity slurry addforce 0.0 0.0 -0.00008
run 300000


unfix extra_gravity

# Move piston wall to starting position
variable dz equal bound(slurry,zmax)-bound(piston_wall,zmin)+0.2
displace_atoms piston_wall move 0 0 ${dz}
run 1000


# Expansion step
run 50000

#unfix active_temp
# Cooling step
#fix cool slurry langevin 30000 30000 10 234
unfix cbd_sovent_temp

fix cool cbd_solvent nvt temp 30000 30000 30
#fix cool active nvt temp 10000 10000 30

run 50000


#unfix cool
# Start moving piston wall and hopper

#fix more_gravity slurry addforce 0 0 -1

dump_modify        dump_id every 25000
#fix push_piston piston_wall move linear 0.0 0.0 ${piston_speed}
fix push_piston piston_wall move linear ${surface_speed} 0.0 ${piston_speed}
variable z_max equal bound(piston_wall,zmax)
variable z_min equal bound(bottom_wall,zmin)
variable run_length equal abs(floor((${z_max}-${z_min}-3)/(${piston_speed}*${dt})))
delete_atoms group bottom_wall
group walls type 4
group hopper subtract walls moving_surface
fix move_hopper hopper move linear ${surface_speed} 0.0 0.0
print ${run_length}

run 2000000
write_data semi_newtest30000.data
run ${run_length}
unfix push_piston

delete_atoms group piston_wall
delete_atoms group hopper
write_data finished coated.data

# Run with piston stopped
run ${run_length}
#run ${run_length}