atom_style         meso-molecular
dimension          3
newton             on
units              micro
read_data          different_particles.data

variable           h_cbd equal 2.0
variable		   h_act equal 3.0
variable		   h_mix equal (${h_cbd}+${h_act})/2
variable           c     equal 100.0 # soundspeed for Tait's EOS
variable           dt    equal 0.0001
variable		   visc  equal 2357.8

group              cbd type 1 # assign group name "cbd" to cbd particles (type 1)
group			   act type 2 # assign group name "act2" to active particles (type 2)
group			   slurry type 1 2






pair_style         hybrid/overlay sph/rhosum 1 sph/taitwater/morris
pair_coeff         * * sph/taitwater/morris 0.93 ${c} ${visc} ${h}
pair_coeff         * * sph/rhosum ${h}



timestep 	${dt}

# time-integrate position, velocities, internal energy and density of cbd particles
fix                integrate_slurry_fix slurry meso
# time-integrate only internal energy and density of boundary particles
#fix                integrate_bc_fix bc meso/stationary


# dump files
dump               dump_id all custom 10000 shrink1.lammpstrj id type mol xs ys zs 
dump_modify        dump_id first yes

dump_modify 	   dump_id sort 3
thermo             10000
thermo_style       custom step time temp press density lx ly lz

thermo_modify      norm no

neigh_modify       every 5 delay 0 check no
variable           skin equal 0.3*${h_cbd}
neighbor           ${skin} bin # set Verlet list skin distance



run 5000000


change_box all x scale 1.1 y volume z volume remap

# reset_timestep 		0
# write_restart restart_tutorial