atom_style         meso-molecular
dimension          3
newton             on
units              micro
boundary 		   f f f
read_data          slurry.data



variable		   h        equal 2

variable           hcbd     equal 2
variable           hact     equal 1
variable           hsol     equal 3.16
variable		   hwall    equal 2

variable		   hwallinteract    equal (${h}+${hwall})/2 
variable		visc  equal 1.65	
variable        c     equal 10.0             
variable        dt    equal 0.0001

variable           hcbdact  equal ((${hcbd}+${hact})/2)
variable 		   hcbdwall	equal ((${hcbd}+${hwall})/2)
variable           hsolact  equal ((${hsol}+${hact})/2)
variable		   hsolwall equal ((${hsol}+${hwall})/2)
variable		   hactwall equal ((${hact}+${hwall})/2)
variable           hcbdsol  equal ((${hsol}+${hcbd})/2)





group              cbd type 1 
group  			   active type 2
group			   solvent type 3
group  			   cbd_solvent type 1 3
group			   wall type 4
group			   slurry type 1 2 3 
group 			   bc type 5

pair_style         hybrid/overlay sph/rhosum 1 sph/taitwater/morris

pair_coeff         * * sph/taitwater/morris 2.24 ${c} ${visc} ${h}

pair_coeff         1 1 sph/taitwater/morris 0.93 ${c} ${visc} ${hcbd}
pair_coeff         2 2 sph/taitwater/morris 2 ${c} ${visc} ${hact}
pair_coeff         3 3 sph/taitwater/morris 1.028 ${c} ${visc} ${hsol}

#pair_coeff		   4 4 sph/taitwater/morris 1 ${c} 0 ${hwall}

pair_coeff		   1 2 sph/taitwater/morris 1.5 ${c} ${visc} ${hcbdact}
pair_coeff         1 3 sph/taitwater/morris 0.979 ${c} ${visc} ${hcbdsol}
#pair_coeff		   1 4 sph/taitwater/morris 1 ${c} 0 ${hcbdwall}
pair_coeff         2 3 sph/taitwater/morris 2.909 ${c} ${visc} ${hsolact}
#pair_coeff		   2 4 sph/taitwater/morris 1 ${c} 0 ${hactwall}
#pair_coeff         3 4 sph/taitwater/morris 1 ${c} 0 ${hsolwall}


pair_coeff         * * sph/rhosum ${h}

pair_coeff         1 1 sph/rhosum ${hcbd}
pair_coeff         2 2 sph/rhosum ${hact}
pair_coeff         3 3 sph/rhosum ${hsol}
#pair_coeff		   4 4 sph/rhosum ${hwall}

pair_coeff         1 2 sph/rhosum ${hcbdact}
pair_coeff         1 3 sph/rhosum ${hcbdsol}
#pair_coeff         1 4 sph/rhosum ${hcbdwall}
pair_coeff         2 3 sph/rhosum ${hsolact}
#pair_coeff		   2 4 sph/rhosum ${hactwall}
#pair_coeff         3 4 sph/rhosum ${hsolwall}
timestep    ${dt}

# time-integrate position, velocities, internal energy and density of cbd particles
fix                integrate_slurry_fix slurry meso
# time-integrate only internal energy and density of boundary particles
#fix                integrate_bc_fix bc meso/stationary

dump               dump_id all custom 10000 solvent.lammpstrj id type mol xs ys zs
dump_modify        dump_id first yes
dump_modify 	   dump_id sort 3

#compute thermo_temp slurry temp
#thermo_modify temp slurry
uncompute thermo_temp
compute thermo_temp all temp
thermo             1000
thermo_style       custom step time dt temp press density lx ly lz
thermo_modify      lost ignore

neigh_modify       every 5 delay 0 check no
variable           skin equal 0.3*${h}
neighbor           ${skin} bin # set Verlet list skin distance


run 100000000
