atom_style         meso-molecular  # because we have molecule in the python file we need to have the meso molecular for the atom_style
dimension          3
newton             on
units              micro
read_data          simple.data

#the shape of the box changed
change_box		   all triclinic 

variable           h        	 equal 2.0
variable           h_act    	 equal 3.0
variable 		   h_mix	     equal (${h}+${h_act})/2.0
variable           c     	     equal 100.0             # soundspeed for Tait's EOS
variable           dt            equal 0.0001 
variable		   visc_CBD      equal 6000			 # viscosity in g/m*s (avg visc should be 2.3578 kg/m*s)
variable 		   visc_active   equal 6000
variable 		   visc_solvent  equal 1.6
variable			T equal 300.0

variable		   visc_mix1     equal (${visc_CBD}+${visc_active})/2.0
variable 		   visc_mix2     equal (${visc_active}+${visc_solvent})/2.0
variable 		   visc_mix3     equal (${visc_CBD}+${visc_solvent})/2.0

group              cbd type 1 
group			   active type 2
group			   solvent type 3
group              slurry type 1 2 3

pair_style         hybrid/overlay sph/rhosum 1 sph/taitwater/morris
pair_coeff         * * sph/taitwater/morris 0.93 ${c} ${visc_CBD} ${h}
#pair_coeff         1 1 sph/taitwater/morris 0.93 ${c} ${visc_CBD} ${h}
pair_coeff         2 2 sph/taitwater/morris 0.93 ${c} ${visc_active} ${h}
pair_coeff         3 3 sph/taitwater/morris 0.93 ${c} ${visc_solvent} ${h}

pair_coeff         1 2 sph/taitwater/morris 0.93 ${c} ${visc_mix1} ${h_mix}
pair_coeff         2 3 sph/taitwater/morris 0.93 ${c} ${visc_mix2} ${h_mix}
pair_coeff         1 3 sph/taitwater/morris 0.93 ${c} ${visc_mix3} ${h_mix}

pair_coeff         * * sph/rhosum ${h}
#pair_coeff         2 * sph/rhosum ${h_act}
#pair_coeff         2 2 sph/rhosum ${h_act}

timestep    ${dt}

### Dump the position

dump               dump_id all custom 1000 visc.lammpstrj type xs ys zs
dump_modify        dump_id first yes


### Thermo

thermo             1000
thermo_style       custom step time temp press density lx ly lz
thermo_modify      norm no






# it's better to let the system equlibrate so that it's done with all the wierd behaviors

# run few times- thermostat 
fix npt_method all npt temp $T $T 100.0 iso 100.0 100.0 1000.0 tloop 20



thermo        1000

run 50000

unfix npt_method  # we are going to use another fix command

##########################

variable	xyrate equal 0.001     # 1000 s-1 
variable	srate equal ${xyrate}*lx

fix		1 all nvt/sllod temp $T $T 100
fix		2 all deform 1 xy erate ${xyrate} remap v


variable	visc equal -pxy/(v_srate/ly)
variable     pressure equal press
fix		vave all ave/time 10 100 1000 v_visc ave running start 1000
fix		pave all ave/time 10 100 1000 v_pressure ave running start 1000

thermo  		1000
thermo_style	custom step temp  press pxy  v_visc f_vave f_pave v_xyrate pe ke etotal
#thermo_modify	temp tilt

run 10000000