atom_style         meso-molecular
dimension          3
newton             on
units              micro

read_data          longboxfall.data


variable           h         equal 2.0
variable           h_act     equal 3.0
variable 		   h_mix	 equal (${h}+${h_act})/2.0
variable           c     equal 100.0             # soundspeed for Tait's EOS
variable           dt    equal 0.0001
variable		   visc  equal 2357.8			 # viscosity in g/m*s (avg visc should be 2.3578 kg/m*s)

group              cbd type 1 
group			   active type 2
group			   solvent type 3
group  			   cbd_solvent type 1 3
group      		   cbd_active type 1 2

group              slurry type 1 2 3
group              bc type 4

pair_style         hybrid/overlay sph/rhosum 1 sph/taitwater/morris
pair_coeff         * * sph/taitwater/morris 0.93 ${c} ${visc} ${h}
pair_coeff         * * sph/rhosum ${h}



timestep    ${dt}

# time-integrate position, velocities, internal energy and density of cbd particles
fix                integrate_slurry_fix slurry meso
# time-integrate only internal energy and density of boundary particles
fix                integrate_bc_fix bc meso/stationary

dump               dump_id all custom 10000 fast_dried_long33.lammpstrj id type mol xs ys zs
dump_modify        dump_id first yes
dump_modify 	   dump_id sort 3

#compute thermo_temp slurry temp
#thermo_modify temp slurry
uncompute thermo_temp
compute thermo_temp slurry temp
thermo             1000
thermo_style       custom step time temp press density lx ly lz
thermo_modify      norm no

neigh_modify       every 5 delay 0 check no
variable           skin equal 0.3*${h}
neighbor           ${skin} bin # set Verlet list skin distance
#change_box all boundary p p f
fix make_rigid active rigid molecule

run 30000
variable g equal 9.8/100


fix add_gravity slurry gravity ${g} vector 0 0 -1
run 100000


#fix add_gravity1 slurry gravity ${g} vector 0 0 -1  # Acceleration is micrometers/(microseconds)^2


variable slurry_height equal bound(active,zmax)

print ${slurry_height}

region evap_region_upper block 0 EDGE 0 EDGE ${slurry_height} EDGE
region evap_region_lower block 0 EDGE 0 EDGE 0 ${slurry_height}

fix evap_upper solvent evaporate 1000 100 evap_region_upper 139
fix evap_lower solvent evaporate 10000 20 evap_region_lower 138

fix heat_solvent solvent langevin 100000000 100000000 10 234

run 300000

unfix evap_upper

variable slurry_height_2 equal bound(active,zmax)

print ${slurry_height_2}

region evap_region_upper_2 block 0 EDGE 0 EDGE ${slurry_height_2} EDGE

fix evap_upper_2 solvent evaporate 1000 100 evap_region_upper_2 139

run 300000

unfix evap_upper_2

variable slurry_height_3 equal bound(active,zmax)

print ${slurry_height_3}

region evap_region_upper_3 block 0 EDGE 0 EDGE ${slurry_height_3} EDGE


fix evap_upper_3 solvent evaporate 1000 100 evap_region_upper_3 139

run 3000000

write_data fast_dried_long33.data