atom_style         meso-molecular
dimension          3
newton             on
units              micro
read_data          fcc_packed.data

#the shape of the box changed
change_box		   all triclinic 

variable           h         equal 15
variable           c     equal 100.0             # soundspeed for Tait's EOS
variable           dt    equal 0.0001
variable		   visc  equal 0.00165 #we want to verifty that our code returns the same value for viscosity as the one that we passed in
variable	srate equal 2.7
variable			t equal 300.0

group			   solvent type 1

pair_style         hybrid/overlay sph/rhosum 1 sph/taitwater/morris

pair_coeff         * * sph/taitwater/morris 1.03 ${c} ${visc} ${h}



pair_coeff         * * sph/rhosum ${h}



timestep    ${dt}

### Dump the position

dump               dump_id all custom 10000 visc.lammpstrj xs ys zs # we don't need type and id they are all the same
dump_modify        dump_id first yes


velocity        all create $t 97287

fix             1 all nve
fix	        2 all langevin $t $t 0.1 498094
#fix	        3 all enforce2d

# equilibration run

thermo             1000
thermo_style       custom step time temp press density lx ly lz
thermo_modify      norm no

run	        5000

unfix  	        1
unfix		2

# turn on NEMD shear and equilibrate some more

velocity	all scale $t

# shear rate defined relative to perpendicular dimension

variable	xyrate equal ${srate}/ly 

fix		1 all nvt/sllod temp $t $t 0.1
fix		2 all deform 1 xy erate ${xyrate} remap v

compute         layers all chunk/atom bin/2d y center 1 x center 1 units reduced
fix		4 all ave/chunk 20 250 5000 layers vx file profile.nemd.2d

compute		usual all temp
compute		tilt all temp/deform

thermo          1000
thermo_style	custom step temp c_usual epair etotal press pxy
thermo_modify	temp tilt
run		50000

# data gathering run

variable	visc equal -pxy/(v_srate/ly)
fix		vave all ave/time 10 100 1000 v_visc ave running start 56000

thermo_style	custom step temp press pxy v_visc f_vave
thermo_modify	temp tilt

# only need to run for 5400 steps to make a good 100-frame movie
# set 54K steps above in equil and 5400 here simply to make good movie
# 54K and 5400 are multiples of box-swap periodicity = 2700 steps

#dump	        1 all custom 50 dump.nemd.2d id type x y z vx

#dump		2 all image 50 image.*.jpg vx type zoom 1.2 adiam 1.2
#dump_modify	2 pad 5 amap 0.0 ${srate} ca 0.0 2 min blue max red

run		50000
