atom_style         meso-molecular
dimension          3
newton             on
units              micro
read_data          test.data

variable           h         equal 2.0
variable           h_act     equal 3.0
variable 		   h_mix	 equal (${h}+${h_act})/2.0
variable           c     equal 100.0             # soundspeed for Tait's EOS
variable           dt    equal 0.0001
variable		   visc  equal 2357.8			 # viscosity in g/m*s (avg visc should be 2.3578 kg/m*s)

group              cbd type 1 
group			   solvent type 2
group			   active type 3
group              slurry type 1 2 3
group              bc type 4

pair_style         hybrid/overlay sph/rhosum 1 sph/taitwater/morris
pair_coeff         * * sph/taitwater/morris 0.93 ${c} ${visc} ${h}
#pair_coeff         2 * sph/taitwater/morris 0.93 ${c} ${visc} ${h_act}
#pair_coeff         2 2 sph/taitwater/morris 0.93 ${c} ${visc} ${h_act}
pair_coeff         * * sph/rhosum ${h}
#pair_coeff         2 * sph/rhosum ${h_act}
#pair_coeff         2 2 sph/rhosum ${h_act}


timestep    ${dt}

# time-integrate position, velocities, internal energy and density of cbd particles
fix                integrate_slurry_fix slurry meso
# time-integrate only internal energy and density of boundary particles
fix                integrate_bc_fix bc meso/stationary

dump               dump_id all custom 10000 evaporating.lammpstrj id type mol xs ys zs
dump_modify        dump_id first yes
dump_modify 	   dump_id sort 3

thermo             1000
thermo_style       custom step time temp press density lx ly lz
thermo_modify      norm no

neigh_modify       every 5 delay 0 check no
variable           skin equal 0.3*${h}
neighbor           ${skin} bin # set Verlet list skin distance

region evap_region block 0 EDGE 0 EDGE 0 EDGE
fix evap solvent evaporate 10000 10 evap_region 2343

run 300000



