atom_style         meso-molecular
dimension          3
newton             on
units              micro
read_data          viscdifferentparticle.data


            
variable           dt    equal 0.0001


variable			T equal 300.0

include 			mixInterRef.in
timestep    ${dt}


#the shape of the box changed
change_box		   all triclinic 


### Dump the position

dump               dump_id all custom 10000 viscdifferentparticlecolor-sc.lammpstrj id type xs ys zs # we don't need type and id they are all the same
dump_modify        dump_id first yes


### Thermo

thermo             1000
thermo_style       custom step time temp press density lx ly lz
thermo_modify      norm no






group 			   rigids type 2
group 			   nonrigid subtract all rigids


# run few times- thermostat 
fix rigid_npt_method all rigid molecule 
fix npt_method nonrigid npt temp $T $T 100.0 iso 100.0 100.0 1000.0 tloop 20

#now we are just applying thermostat to everything except active particles and it should 




timestep	${dt}
thermo        1000

run 50000

unfix npt_method  # we are going to use another fix command
unfix rigid_npt_method
##########################

variable	xyrate equal 0.001     # 1000 s-1 
variable	srate equal ${xyrate}*lx

fix		1 all nvt/sllod temp $T $T 100 # can we apply this to all of it? try.
fix		2 all deform 1 xy erate ${xyrate} remap v


variable	visc equal -pxy/(v_srate/ly)
variable     pressure equal press
fix		vave all ave/time 10 100 1000 v_visc ave running start 1000
fix		pave all ave/time 10 100 1000 v_pressure ave running start 1000

thermo  		1000
thermo_style	custom step temp  press pxy  v_visc f_vave f_pave v_xyrate pe ke etotal
#thermo_modify	temp tilt

run 10000000