atom_style         meso-molecular
dimension          3
newton             on
units              micro
read_data          potatoe.data

variable           h         equal 2.0
variable           h_act     equal 3.0
variable 		   h_mix	 equal (${h}+${h_act})/2.0
variable           c     	 equal 100.0             # soundspeed for Tait's EOS
variable           dt    	 equal 0.0001
variable		   visc      equal 2357.8

group              cbd type 1 
group			   solvent type 2
group			   cbd_solvent type 1 2
group			   active type 3
group              slurry type 1 2 3
group              bc type 4

pair_style         hybrid/overlay sph/rhosum 1 sph/taitwater/morris
pair_coeff		   * * sph/taitwater/morris 0.93 ${c} ${visc} ${h}
pair_coeff         * * sph/rhosum ${h}


timestep    ${dt}

# time-integrate position, velocities, internal energy and density of cbd particles
fix                integrate_slurry_fix slurry meso
# time-integrate only internal energy and density of boundary particles
fix                integrate_bc_fix bc meso/stationary

dump               dump_id all custom 10000 mixpotatoe.lammpstrj id type mol xs ys zs
dump_modify        dump_id first yes
dump_modify 	   dump_id sort 3

#compute thermo_temp slurry temp
#thermo_modify temp slurry
uncompute thermo_temp
compute thermo_temp slurry temp
thermo             1000
thermo_style       custom step time temp press density lx ly lz
thermo_modify      norm no

neigh_modify       every 5 delay 0 check no
variable           skin equal 0.3*${h}
neighbor           ${skin} bin # set Verlet list skin distance

variable wiggle_s equal swiggle(0,2000,10)
variable wiggle_c equal cwiggle(0,-2000,10)

#fix strong_gravity slurry addforce 0.0 0.0 -0.05
 
fix add_force slurry setforce 1 1 0
#fix rotate_active active move rotate 10 10 60 1 1 1 30
fix make_rigid active rigid/nvt molecule temp 30000000 30000000 30
fix add_gravity slurry gravity .000098 vector 0 0 -1
fix heat_cbd_solvent cbd_solvent nvt temp 30000000 30000000 30

run 100000

unfix add_force
unfix heat_cbd_solvent
unfix add_gravity
unfix make_rigid

fix make_rigid active rigid molecule

fix add_gravity slurry gravity .98 vector 0 0 -1
fix cool cbd_solvent nvt temp 30000000 300 30
fix cool_active active langevin 30000000 300 10 234

run 200000

unfix add_gravity

variable g equal 9.8/100
fix less_gravity slurry gravity ${g} vector 0 0 -1

run 400000


write_data mixedpotatoe.data




