atom_style         meso-molecular
dimension          3
newton             on
units              micro
read_data          mixtest.data

variable		   h        equal 2.0
variable           hsol     equal 1.50
variable           hcbd     equal 1.50
variable           hact     equal 8.0
variable		   hwall    equal 1.0
variable           hcbdsol  equal 1
variable           hcbdact  equal ((${hcbd}+${hact})/2)
variable 		   hcbdwall	equal ((${hcbd}+${hwall})/2)
variable           hsolact  equal ((${hsol}+${hact})/2)
variable		   hsolwall equal ((${hsol}+${hwall})/2)
variable		   hactwall equal ((${hact}+${hwall})/2)


variable           c     equal 100.0             # soundspeed for Tait's EOS
variable           dt    equal 0.0001			 # size of timestep, microseconds
variable		   visc  equal 2357.8			 # viscosity in g/m*s (avg visc should be 2.3578 kg/m*s)


group              cbd type 1 
group			   solvent type 2
group  			   active type 3
group			   wall type 4
group			   slurry type 1 2 3 
group 			   bc type 4

pair_style         hybrid/overlay sph/rhosum 1 sph/taitwater/morris

pair_coeff         * * sph/taitwater/morris 2.0 ${c} ${visc} ${h}

pair_coeff         1 1 sph/taitwater/morris 0.93 ${c} ${visc} ${hcbd}
pair_coeff         2 2 sph/taitwater/morris 1.028 ${c} ${visc} ${hsol}
pair_coeff         3 3 sph/taitwater/morris 4.79 ${c} ${visc} ${hact}
pair_coeff		   4 4 sph/taitwater/morris 5.0 ${c} ${visc} 2

pair_coeff         1 2 sph/taitwater/morris 0.979 ${c} ${visc} ${hcbdsol}
pair_coeff		   1 3 sph/taitwater/morris 2.86 ${c} ${visc} ${hcbdact}
pair_coeff		   1 4 sph/taitwater/morris 2.965 ${c} ${visc} ${hcbdwall}
pair_coeff         2 3 sph/taitwater/morris 2.670 ${c} ${visc} ${hsolact}
pair_coeff         2 4 sph/taitwater/morris 3.014 ${c} ${visc} ${hsolwall}
pair_coeff		   3 4 sph/taitwater/morris 4.9 ${c} ${visc} ${hactwall}

pair_coeff         * * sph/rhosum ${h}

pair_coeff         1 1 sph/rhosum ${hcbd}
pair_coeff         2 2 sph/rhosum ${hsol}
pair_coeff         3 3 sph/rhosum ${hact}
pair_coeff		   4 4 sph/rhosum ${hwall}

pair_coeff         1 2 sph/rhosum ${hcbdsol}
pair_coeff         1 3 sph/rhosum ${hcbdact}
pair_coeff         1 4 sph/rhosum ${hcbdwall}
pair_coeff         2 3 sph/rhosum ${hsolact}
pair_coeff         2 4 sph/rhosum ${hsolwall}
pair_coeff		   3 4 sph/rhosum ${hactwall}


timestep    ${dt}

# time-integrate position, velocities, internal energy and density of cbd particles
fix                integrate_slurry_fix slurry meso
# time-integrate only internal energy and density of boundary particles
fix                integrate_bc_fix bc meso/stationary

dump               dump_id all custom 1000 mixtest5.lammpstrj id type mol xs ys zs
dump_modify        dump_id first yes
dump_modify 	   dump_id sort 3

#compute thermo_temp slurry temp
#thermo_modify temp slurry
uncompute thermo_temp
compute thermo_temp slurry temp
thermo             1000
thermo_style       custom step time temp press density lx ly lz
thermo_modify      norm no

neigh_modify       every 5 delay 0 check no
variable           skin equal 0.3*${h}
neighbor           ${skin} bin # set Verlet list skin distance

group uno molecule 1
fix move_uno uno setforce -1 0 0

run 10000

unfix move_uno

run 4000000
